Please solve the following SAT Problem encoded in DIMACS format, only return a single solution assignment without explanations, if there is any: 
p cnf 5 18
1 -2 4 0
4 -5 -2 0
5 -1 -3 0
-2 -3 -1 0
5 4 -2 0
3 5 -1 0
5 4 -1 0
4 -2 5 0
-3 4 5 0
4 -3 -2 0
1 -2 -3 0
4 -1 -2 0
-1 -2 -4 0
-3 5 -1 0
-2 -3 5 0
-1 4 -3 0
-3 4 5 0
5 -2 4 0

